letting n =  10
letting blocks =  [[1, 1], [1, 2], [1, 4], [1, 6], [1, 8], [1, 10], [2, 1], [2, 2], [2, 3], [2, 5], [2, 8], [2, 10], [3, 4], [3, 5], [3, 6], [3, 7], [3, 9], [3, 10], [4, 4], [4, 5], [4, 6], [4, 7], [4, 9], [4, 10], [5, 2], [5, 3], [5, 5], [5, 7], [5, 9], [6, 1], [6, 2], [6, 6], [6, 7], [6, 9], [6, 10], [7, 2], [7, 3], [7, 4], [7, 5], [7, 8], [7, 9], [8, 4], [9, 2], [9, 6], [9, 8], [9, 9], [9, 10], [10, 1], [10, 3], [10, 4], [10, 6], [10, 8]]
